-172.0 5.0 8.0 10.0 1.0 5.0 6.0 5.0 0.0 3.0 6.0 8.0 4.0 5.0 7.0 8.0 8.0 4.0 9.0 1.0 10.0 6.0 6.0 10.0 0.0 2.0 7.0 3.0 2.0 6.0 3.0 6.0 7.0 1.0 
5.0 -150.0 7.0 2.0 3.0 4.0 7.0 1.0 3.0 2.0 9.0 1.0 8.0 7.0 5.0 4.0 8.0 8.0 4.0 1.0 10.0 5.0 7.0 4.0 5.0 4.0 5.0 7.0 9.0 2.0 3.0 0.0 0.0 0.0 
8.0 7.0 -182.0 9.0 9.0 1.0 10.0 9.0 8.0 10.0 1.0 4.0 9.0 3.0 6.0 7.0 10.0 2.0 5.0 4.0 7.0 2.0 5.0 8.0 5.0 0.0 0.0 7.0 3.0 10.0 1.0 5.0 5.0 2.0 
10.0 2.0 9.0 -159.0 6.0 8.0 5.0 8.0 9.0 6.0 0.0 1.0 5.0 4.0 10.0 2.0 5.0 4.0 4.0 3.0 10.0 0.0 4.0 0.0 2.0 10.0 10.0 3.0 7.0 2.0 0.0 1.0 9.0 0.0 
1.0 3.0 9.0 6.0 -142.0 9.0 0.0 0.0 0.0 7.0 9.0 5.0 6.0 7.0 8.0 0.0 9.0 2.0 7.0 4.0 0.0 1.0 4.0 0.0 1.0 4.0 2.0 8.0 4.0 2.0 0.0 9.0 8.0 7.0 
5.0 4.0 1.0 8.0 9.0 -166.0 1.0 2.0 3.0 1.0 6.0 0.0 10.0 0.0 5.0 8.0 0.0 6.0 5.0 4.0 0.0 4.0 4.0 6.0 10.0 2.0 8.0 6.0 5.0 8.0 9.0 10.0 10.0 6.0 
6.0 7.0 10.0 5.0 0.0 1.0 -168.0 0.0 3.0 3.0 4.0 8.0 10.0 2.0 10.0 10.0 2.0 4.0 2.0 0.0 0.0 6.0 8.0 9.0 0.0 3.0 6.0 4.0 5.0 6.0 9.0 9.0 9.0 7.0 
5.0 1.0 9.0 8.0 0.0 2.0 0.0 -138.0 4.0 9.0 2.0 5.0 0.0 0.0 9.0 8.0 1.0 5.0 8.0 5.0 0.0 8.0 0.0 0.0 0.0 4.0 7.0 6.0 6.0 0.0 9.0 5.0 6.0 6.0 
0.0 3.0 8.0 9.0 0.0 3.0 3.0 4.0 -135.0 5.0 7.0 0.0 1.0 6.0 9.0 1.0 3.0 9.0 5.0 1.0 3.0 0.0 6.0 10.0 5.0 0.0 6.0 8.0 5.0 6.0 6.0 2.0 0.0 1.0 
3.0 2.0 10.0 6.0 7.0 1.0 3.0 9.0 5.0 -193.0 2.0 9.0 6.0 2.0 9.0 9.0 7.0 8.0 5.0 4.0 4.0 4.0 4.0 7.0 2.0 7.0 8.0 7.0 7.0 9.0 9.0 6.0 5.0 7.0 
6.0 9.0 1.0 0.0 9.0 6.0 4.0 2.0 7.0 2.0 -173.0 7.0 6.0 0.0 9.0 8.0 5.0 8.0 9.0 2.0 3.0 5.0 1.0 5.0 7.0 0.0 7.0 7.0 9.0 9.0 8.0 4.0 0.0 8.0 
8.0 1.0 4.0 1.0 5.0 0.0 8.0 5.0 0.0 9.0 7.0 -146.0 8.0 5.0 0.0 4.0 0.0 10.0 1.0 9.0 7.0 7.0 9.0 3.0 9.0 1.0 5.0 0.0 7.0 2.0 0.0 1.0 7.0 3.0 
4.0 8.0 9.0 5.0 6.0 10.0 10.0 0.0 1.0 6.0 6.0 8.0 -155.0 4.0 0.0 3.0 0.0 7.0 7.0 7.0 7.0 0.0 7.0 5.0 2.0 2.0 1.0 0.0 0.0 4.0 3.0 10.0 4.0 9.0 
5.0 7.0 3.0 4.0 7.0 0.0 2.0 0.0 6.0 2.0 0.0 5.0 4.0 -154.0 9.0 4.0 7.0 9.0 8.0 2.0 8.0 7.0 6.0 6.0 8.0 1.0 3.0 1.0 1.0 5.0 8.0 10.0 1.0 5.0 
7.0 5.0 6.0 10.0 8.0 5.0 10.0 9.0 9.0 9.0 9.0 0.0 0.0 9.0 -213.0 8.0 2.0 4.0 10.0 3.0 10.0 10.0 0.0 9.0 10.0 4.0 1.0 10.0 5.0 10.0 4.0 7.0 0.0 10.0 
8.0 4.0 7.0 2.0 0.0 8.0 10.0 8.0 1.0 9.0 8.0 4.0 3.0 4.0 8.0 -169.0 2.0 8.0 10.0 8.0 3.0 3.0 3.0 5.0 3.0 2.0 5.0 6.0 5.0 1.0 5.0 1.0 7.0 8.0 
8.0 8.0 10.0 5.0 9.0 0.0 2.0 1.0 3.0 7.0 5.0 0.0 0.0 7.0 2.0 2.0 -143.0 0.0 6.0 3.0 7.0 8.0 2.0 2.0 6.0 6.0 10.0 1.0 2.0 0.0 6.0 9.0 5.0 1.0 
4.0 8.0 2.0 4.0 2.0 6.0 4.0 5.0 9.0 8.0 8.0 10.0 7.0 9.0 4.0 8.0 0.0 -201.0 8.0 6.0 7.0 8.0 0.0 8.0 6.0 5.0 8.0 6.0 10.0 10.0 10.0 6.0 5.0 0.0 
9.0 4.0 5.0 4.0 7.0 5.0 2.0 8.0 5.0 5.0 9.0 1.0 7.0 8.0 10.0 10.0 6.0 8.0 -197.0 7.0 9.0 8.0 7.0 10.0 1.0 8.0 2.0 9.0 2.0 4.0 1.0 3.0 4.0 9.0 
1.0 1.0 4.0 3.0 4.0 4.0 0.0 5.0 1.0 4.0 2.0 9.0 7.0 2.0 3.0 8.0 3.0 6.0 7.0 -121.0 7.0 2.0 10.0 1.0 5.0 4.0 2.0 2.0 0.0 3.0 5.0 0.0 2.0 4.0 
10.0 10.0 7.0 10.0 0.0 0.0 0.0 0.0 3.0 4.0 3.0 7.0 7.0 8.0 10.0 3.0 7.0 7.0 9.0 7.0 -189.0 10.0 3.0 1.0 9.0 5.0 7.0 9.0 5.0 9.0 6.0 1.0 8.0 4.0 
6.0 5.0 2.0 0.0 1.0 4.0 6.0 8.0 0.0 4.0 5.0 7.0 0.0 7.0 10.0 3.0 8.0 8.0 8.0 2.0 10.0 -157.0 6.0 0.0 2.0 3.0 9.0 1.0 8.0 3.0 3.0 1.0 9.0 8.0 
6.0 7.0 5.0 4.0 4.0 4.0 8.0 0.0 6.0 4.0 1.0 9.0 7.0 6.0 0.0 3.0 2.0 0.0 7.0 10.0 3.0 6.0 -164.0 6.0 6.0 9.0 7.0 3.0 6.0 3.0 9.0 7.0 0.0 6.0 
10.0 4.0 8.0 0.0 0.0 6.0 9.0 0.0 10.0 7.0 5.0 3.0 5.0 6.0 9.0 5.0 2.0 8.0 10.0 1.0 1.0 0.0 6.0 -161.0 1.0 8.0 3.0 7.0 2.0 2.0 3.0 4.0 10.0 6.0 
0.0 5.0 5.0 2.0 1.0 10.0 0.0 0.0 5.0 2.0 7.0 9.0 2.0 8.0 10.0 3.0 6.0 6.0 1.0 5.0 9.0 2.0 6.0 1.0 -150.0 3.0 9.0 6.0 5.0 1.0 4.0 10.0 7.0 0.0 
2.0 4.0 0.0 10.0 4.0 2.0 3.0 4.0 0.0 7.0 0.0 1.0 2.0 1.0 4.0 2.0 6.0 5.0 8.0 4.0 5.0 3.0 9.0 8.0 3.0 -143.0 10.0 7.0 8.0 4.0 1.0 2.0 4.0 10.0 
7.0 5.0 0.0 10.0 2.0 8.0 6.0 7.0 6.0 8.0 7.0 5.0 1.0 3.0 1.0 5.0 10.0 8.0 2.0 2.0 7.0 9.0 7.0 3.0 9.0 10.0 -177.0 8.0 2.0 4.0 8.0 1.0 6.0 0.0 
3.0 7.0 7.0 3.0 8.0 6.0 4.0 6.0 8.0 7.0 7.0 0.0 0.0 1.0 10.0 6.0 1.0 6.0 9.0 2.0 9.0 1.0 3.0 7.0 6.0 7.0 8.0 -172.0 8.0 9.0 1.0 5.0 2.0 5.0 
2.0 9.0 3.0 7.0 4.0 5.0 5.0 6.0 5.0 7.0 9.0 7.0 0.0 1.0 5.0 5.0 2.0 10.0 2.0 0.0 5.0 8.0 6.0 2.0 5.0 8.0 2.0 8.0 -151.0 0.0 1.0 6.0 6.0 0.0 
6.0 2.0 10.0 2.0 2.0 8.0 6.0 0.0 6.0 9.0 9.0 2.0 4.0 5.0 10.0 1.0 0.0 10.0 4.0 3.0 9.0 3.0 3.0 2.0 1.0 4.0 4.0 9.0 0.0 -157.0 9.0 3.0 9.0 2.0 
3.0 3.0 1.0 0.0 0.0 9.0 9.0 9.0 6.0 9.0 8.0 0.0 3.0 8.0 4.0 5.0 6.0 10.0 1.0 5.0 6.0 3.0 9.0 3.0 4.0 1.0 8.0 1.0 1.0 9.0 -154.0 2.0 8.0 0.0 
6.0 0.0 5.0 1.0 9.0 10.0 9.0 5.0 2.0 6.0 4.0 1.0 10.0 10.0 7.0 1.0 9.0 6.0 3.0 0.0 1.0 1.0 7.0 4.0 10.0 2.0 1.0 5.0 6.0 3.0 2.0 -161.0 10.0 5.0 
7.0 0.0 5.0 9.0 8.0 10.0 9.0 6.0 0.0 5.0 0.0 7.0 4.0 1.0 0.0 7.0 5.0 5.0 4.0 2.0 8.0 9.0 0.0 10.0 7.0 4.0 6.0 2.0 6.0 9.0 8.0 10.0 -176.0 3.0 
1.0 0.0 2.0 0.0 7.0 6.0 7.0 6.0 1.0 7.0 8.0 3.0 9.0 5.0 10.0 8.0 1.0 0.0 9.0 4.0 4.0 8.0 6.0 6.0 0.0 10.0 0.0 5.0 0.0 2.0 0.0 5.0 3.0 -143.0 

